FourierSAT_Github_AIJ/benchmarks/MAXSAT_benchmarks/random/1/dimacs-mod/hamming8-4.clq.cnf
c File:  hamming8-4.clq
c
c Source: Panos Pardalos pardalos@math.ufl.edu
c
c Reference: hamminga-b is a Hamming graph on a-bit words with
c            an edge if and only if the two words are at least
c            hamming distance b apart
c
p cnf 43 994
1 6 0
-1 -6 0
1 10 0
-1 -10 0
1 11 0
-1 -11 0
1 14 0
-1 -14 0
1 16 0
-1 -16 0
1 18 0
-1 -18 0
1 19 0
-1 -19 0
1 20 0
-1 -20 0
1 21 0
-1 -21 0
1 22 0
-1 -22 0
1 26 0
-1 -26 0
1 27 0
-1 -27 0
1 30 0
-1 -30 0
1 31 0
-1 -31 0
1 32 0
-1 -32 0
1 34 0
-1 -34 0
1 35 0
-1 -35 0
1 36 0
-1 -36 0
1 37 0
-1 -37 0
1 38 0
-1 -38 0
1 39 0
-1 -39 0
1 40 0
-1 -40 0
1 41 0
-1 -41 0
1 42 0
-1 -42 0
1 43 0
-1 -43 0
2 5 0
-2 -5 0
2 9 0
-2 -9 0
2 11 0
-2 -11 0
2 13 0
-2 -13 0
2 16 0
-2 -16 0
2 17 0
-2 -17 0
2 19 0
-2 -19 0
2 20 0
-2 -20 0
2 21 0
-2 -21 0
2 22 0
-2 -22 0
2 25 0
-2 -25 0
2 27 0
-2 -27 0
2 29 0
-2 -29 0
2 31 0
-2 -31 0
2 32 0
-2 -32 0
2 33 0
-2 -33 0
2 35 0
-2 -35 0
2 36 0
-2 -36 0
2 37 0
-2 -37 0
2 38 0
-2 -38 0
2 39 0
-2 -39 0
2 40 0
-2 -40 0
2 41 0
-2 -41 0
2 42 0
-2 -42 0
2 43 0
-2 -43 0
3 4 0
-3 -4 0
3 9 0
-3 -9 0
3 10 0
-3 -10 0
3 12 0
-3 -12 0
3 16 0
-3 -16 0
3 17 0
-3 -17 0
3 18 0
-3 -18 0
3 20 0
-3 -20 0
3 21 0
-3 -21 0
3 22 0
-3 -22 0
3 25 0
-3 -25 0
3 26 0
-3 -26 0
3 28 0
-3 -28 0
3 31 0
-3 -31 0
3 32 0
-3 -32 0
3 33 0
-3 -33 0
3 34 0
-3 -34 0
3 36 0
-3 -36 0
3 37 0
-3 -37 0
3 38 0
-3 -38 0
3 39 0
-3 -39 0
3 40 0
-3 -40 0
3 41 0
-3 -41 0
3 42 0
-3 -42 0
3 43 0
-3 -43 0
4 7 0
-4 -7 0
4 11 0
-4 -11 0
4 13 0
-4 -13 0
4 14 0
-4 -14 0
4 17 0
-4 -17 0
4 18 0
-4 -18 0
4 19 0
-4 -19 0
4 21 0
-4 -21 0
4 22 0
-4 -22 0
4 23 0
-4 -23 0
4 27 0
-4 -27 0
4 29 0
-4 -29 0
4 30 0
-4 -30 0
4 31 0
-4 -31 0
4 33 0
-4 -33 0
4 34 0
-4 -34 0
4 35 0
-4 -35 0
4 37 0
-4 -37 0
4 38 0
-4 -38 0
4 39 0
-4 -39 0
4 40 0
-4 -40 0
4 41 0
-4 -41 0
4 42 0
-4 -42 0
4 43 0
-4 -43 0
5 7 0
-5 -7 0
5 10 0
-5 -10 0
5 12 0
-5 -12 0
5 14 0
-5 -14 0
5 17 0
-5 -17 0
5 18 0
-5 -18 0
5 19 0
-5 -19 0
5 20 0
-5 -20 0
5 22 0
-5 -22 0
5 23 0
-5 -23 0
5 26 0
-5 -26 0
5 28 0
-5 -28 0
5 30 0
-5 -30 0
5 31 0
-5 -31 0
5 33 0
-5 -33 0
5 34 0
-5 -34 0
5 35 0
-5 -35 0
5 36 0
-5 -36 0
5 38 0
-5 -38 0
5 39 0
-5 -39 0
5 40 0
-5 -40 0
5 41 0
-5 -41 0
5 42 0
-5 -42 0
5 43 0
-5 -43 0
6 7 0
-6 -7 0
6 9 0
-6 -9 0
6 12 0
-6 -12 0
6 13 0
-6 -13 0
6 17 0
-6 -17 0
6 18 0
-6 -18 0
6 19 0
-6 -19 0
6 20 0
-6 -20 0
6 21 0
-6 -21 0
6 23 0
-6 -23 0
6 25 0
-6 -25 0
6 28 0
-6 -28 0
6 29 0
-6 -29 0
6 31 0
-6 -31 0
6 33 0
-6 -33 0
6 34 0
-6 -34 0
6 35 0
-6 -35 0
6 36 0
-6 -36 0
6 37 0
-6 -37 0
6 39 0
-6 -39 0
6 40 0
-6 -40 0
6 41 0
-6 -41 0
6 42 0
-6 -42 0
6 43 0
-6 -43 0
7 12 0
-7 -12 0
7 13 0
-7 -13 0
7 14 0
-7 -14 0
7 16 0
-7 -16 0
7 20 0
-7 -20 0
7 21 0
-7 -21 0
7 22 0
-7 -22 0
7 24 0
-7 -24 0
7 25 0
-7 -25 0
7 26 0
-7 -26 0
7 27 0
-7 -27 0
7 32 0
-7 -32 0
7 33 0
-7 -33 0
7 34 0
-7 -34 0
7 35 0
-7 -35 0
7 36 0
-7 -36 0
7 37 0
-7 -37 0
7 38 0
-7 -38 0
7 40 0
-7 -40 0
7 41 0
-7 -41 0
7 42 0
-7 -42 0
7 43 0
-7 -43 0
8 15 0
-8 -15 0
8 23 0
-8 -23 0
8 25 0
-8 -25 0
8 26 0
-8 -26 0
8 27 0
-8 -27 0
8 31 0
-8 -31 0
8 33 0
-8 -33 0
8 34 0
-8 -34 0
8 35 0
-8 -35 0
8 36 0
-8 -36 0
8 37 0
-8 -37 0
8 38 0
-8 -38 0
8 39 0
-8 -39 0
8 41 0
-8 -41 0
8 42 0
-8 -42 0
8 43 0
-8 -43 0
9 12 0
-9 -12 0
9 13 0
-9 -13 0
9 14 0
-9 -14 0
9 16 0
-9 -16 0
9 18 0
-9 -18 0
9 19 0
-9 -19 0
9 22 0
-9 -22 0
9 23 0
-9 -23 0
9 24 0
-9 -24 0
9 26 0
-9 -26 0
9 27 0
-9 -27 0
9 30 0
-9 -30 0
9 33 0
-9 -33 0
9 34 0
-9 -34 0
9 35 0
-9 -35 0
9 36 0
-9 -36 0
9 37 0
-9 -37 0
9 38 0
-9 -38 0
9 39 0
-9 -39 0
9 40 0
-9 -40 0
9 42 0
-9 -42 0
9 43 0
-9 -43 0
10 12 0
-10 -12 0
10 13 0
-10 -13 0
10 14 0
-10 -14 0
10 16 0
-10 -16 0
10 17 0
-10 -17 0
10 19 0
-10 -19 0
10 21 0
-10 -21 0
10 23 0
-10 -23 0
10 24 0
-10 -24 0
10 25 0
-10 -25 0
10 27 0
-10 -27 0
10 29 0
-10 -29 0
10 33 0
-10 -33 0
10 34 0
-10 -34 0
10 35 0
-10 -35 0
10 36 0
-10 -36 0
10 37 0
-10 -37 0
10 38 0
-10 -38 0
10 39 0
-10 -39 0
10 40 0
-10 -40 0
10 41 0
-10 -41 0
10 43 0
-10 -43 0
11 12 0
-11 -12 0
11 13 0
-11 -13 0
11 14 0
-11 -14 0
11 16 0
-11 -16 0
11 17 0
-11 -17 0
11 18 0
-11 -18 0
11 20 0
-11 -20 0
11 23 0
-11 -23 0
11 24 0
-11 -24 0
11 25 0
-11 -25 0
11 26 0
-11 -26 0
11 28 0
-11 -28 0
11 33 0
-11 -33 0
11 34 0
-11 -34 0
11 35 0
-11 -35 0
11 36 0
-11 -36 0
11 37 0
-11 -37 0
11 38 0
-11 -38 0
11 39 0
-11 -39 0
11 40 0
-11 -40 0
11 41 0
-11 -41 0
11 42 0
-11 -42 0
12 19 0
-12 -19 0
12 21 0
-12 -21 0
12 22 0
-12 -22 0
12 23 0
-12 -23 0
12 25 0
-12 -25 0
12 26 0
-12 -26 0
12 27 0
-12 -27 0
12 29 0
-12 -29 0
12 30 0
-12 -30 0
12 31 0
-12 -31 0
12 32 0
-12 -32 0
12 35 0
-12 -35 0
12 37 0
-12 -37 0
12 38 0
-12 -38 0
12 39 0
-12 -39 0
12 41 0
-12 -41 0
12 42 0
-12 -42 0
12 43 0
-12 -43 0
13 18 0
-13 -18 0
13 20 0
-13 -20 0
13 22 0
-13 -22 0
13 23 0
-13 -23 0
13 25 0
-13 -25 0
13 26 0
-13 -26 0
13 27 0
-13 -27 0
13 28 0
-13 -28 0
13 30 0
-13 -30 0
13 31 0
-13 -31 0
13 32 0
-13 -32 0
13 34 0
-13 -34 0
13 36 0
-13 -36 0
13 38 0
-13 -38 0
13 39 0
-13 -39 0
13 41 0
-13 -41 0
13 42 0
-13 -42 0
13 43 0
-13 -43 0
14 17 0
-14 -17 0
14 20 0
-14 -20 0
14 21 0
-14 -21 0
14 23 0
-14 -23 0
14 25 0
-14 -25 0
14 26 0
-14 -26 0
14 27 0
-14 -27 0
14 28 0
-14 -28 0
14 29 0
-14 -29 0
14 31 0
-14 -31 0
14 32 0
-14 -32 0
14 33 0
-14 -33 0
14 36 0
-14 -36 0
14 37 0
-14 -37 0
14 39 0
-14 -39 0
14 41 0
-14 -41 0
14 42 0
-14 -42 0
14 43 0
-14 -43 0
15 24 0
-15 -24 0
15 28 0
-15 -28 0
15 29 0
-15 -29 0
15 30 0
-15 -30 0
15 32 0
-15 -32 0
15 40 0
-15 -40 0
16 17 0
-16 -17 0
16 18 0
-16 -18 0
16 19 0
-16 -19 0
16 23 0
-16 -23 0
16 25 0
-16 -25 0
16 26 0
-16 -26 0
16 27 0
-16 -27 0
16 28 0
-16 -28 0
16 29 0
-16 -29 0
16 30 0
-16 -30 0
16 31 0
-16 -31 0
16 33 0
-16 -33 0
16 34 0
-16 -34 0
16 35 0
-16 -35 0
16 39 0
-16 -39 0
16 41 0
-16 -41 0
16 42 0
-16 -42 0
16 43 0
-16 -43 0
17 22 0
-17 -22 0
17 23 0
-17 -23 0
17 24 0
-17 -24 0
17 25 0
-17 -25 0
17 26 0
-17 -26 0
17 27 0
-17 -27 0
17 30 0
-17 -30 0
17 31 0
-17 -31 0
17 32 0
-17 -32 0
17 34 0
-17 -34 0
17 35 0
-17 -35 0
17 36 0
-17 -36 0
17 37 0
-17 -37 0
17 38 0
-17 -38 0
17 42 0
-17 -42 0
17 43 0
-17 -43 0
18 21 0
-18 -21 0
18 23 0
-18 -23 0
18 24 0
-18 -24 0
18 25 0
-18 -25 0
18 26 0
-18 -26 0
18 27 0
-18 -27 0
18 29 0
-18 -29 0
18 31 0
-18 -31 0
18 32 0
-18 -32 0
18 33 0
-18 -33 0
18 35 0
-18 -35 0
18 36 0
-18 -36 0
18 37 0
-18 -37 0
18 38 0
-18 -38 0
18 41 0
-18 -41 0
18 43 0
-18 -43 0
19 20 0
-19 -20 0
19 23 0
-19 -23 0
19 24 0
-19 -24 0
19 25 0
-19 -25 0
19 26 0
-19 -26 0
19 27 0
-19 -27 0
19 28 0
-19 -28 0
19 31 0
-19 -31 0
19 32 0
-19 -32 0
19 33 0
-19 -33 0
19 34 0
-19 -34 0
19 36 0
-19 -36 0
19 37 0
-19 -37 0
19 38 0
-19 -38 0
19 41 0
-19 -41 0
19 42 0
-19 -42 0
20 23 0
-20 -23 0
20 24 0
-20 -24 0
20 25 0
-20 -25 0
20 26 0
-20 -26 0
20 27 0
-20 -27 0
20 29 0
-20 -29 0
20 30 0
-20 -30 0
20 31 0
-20 -31 0
20 33 0
-20 -33 0
20 34 0
-20 -34 0
20 35 0
-20 -35 0
20 37 0
-20 -37 0
20 38 0
-20 -38 0
20 39 0
-20 -39 0
20 43 0
-20 -43 0
21 23 0
-21 -23 0
21 24 0
-21 -24 0
21 25 0
-21 -25 0
21 26 0
-21 -26 0
21 27 0
-21 -27 0
21 28 0
-21 -28 0
21 30 0
-21 -30 0
21 31 0
-21 -31 0
21 33 0
-21 -33 0
21 34 0
-21 -34 0
21 35 0
-21 -35 0
21 36 0
-21 -36 0
21 38 0
-21 -38 0
21 39 0
-21 -39 0
21 42 0
-21 -42 0
22 23 0
-22 -23 0
22 24 0
-22 -24 0
22 25 0
-22 -25 0
22 26 0
-22 -26 0
22 27 0
-22 -27 0
22 28 0
-22 -28 0
22 29 0
-22 -29 0
22 31 0
-22 -31 0
22 33 0
-22 -33 0
22 34 0
-22 -34 0
22 35 0
-22 -35 0
22 36 0
-22 -36 0
22 37 0
-22 -37 0
22 39 0
-22 -39 0
22 41 0
-22 -41 0
23 32 0
-23 -32 0
23 36 0
-23 -36 0
23 37 0
-23 -37 0
23 38 0
-23 -38 0
23 40 0
-23 -40 0
23 41 0
-23 -41 0
23 42 0
-23 -42 0
23 43 0
-23 -43 0
24 31 0
-24 -31 0
24 39 0
-24 -39 0
24 41 0
-24 -41 0
24 42 0
-24 -42 0
24 43 0
-24 -43 0
25 30 0
-25 -30 0
25 34 0
-25 -34 0
25 35 0
-25 -35 0
25 38 0
-25 -38 0
25 39 0
-25 -39 0
25 40 0
-25 -40 0
25 42 0
-25 -42 0
25 43 0
-25 -43 0
26 29 0
-26 -29 0
26 33 0
-26 -33 0
26 35 0
-26 -35 0
26 37 0
-26 -37 0
26 39 0
-26 -39 0
26 40 0
-26 -40 0
26 41 0
-26 -41 0
26 43 0
-26 -43 0
27 28 0
-27 -28 0
27 33 0
-27 -33 0
27 34 0
-27 -34 0
27 36 0
-27 -36 0
27 39 0
-27 -39 0
27 40 0
-27 -40 0
27 41 0
-27 -41 0
27 42 0
-27 -42 0
28 35 0
-28 -35 0
28 37 0
-28 -37 0
28 38 0
-28 -38 0
28 43 0
-28 -43 0
29 34 0
-29 -34 0
29 36 0
-29 -36 0
29 38 0
-29 -38 0
29 42 0
-29 -42 0
30 33 0
-30 -33 0
30 36 0
-30 -36 0
30 37 0
-30 -37 0
30 41 0
-30 -41 0
31 33 0
-31 -33 0
31 34 0
-31 -34 0
31 35 0
-31 -35 0
31 36 0
-31 -36 0
31 37 0
-31 -37 0
31 38 0
-31 -38 0
31 40 0
-31 -40 0
32 33 0
-32 -33 0
32 34 0
-32 -34 0
32 35 0
-32 -35 0
32 39 0
-32 -39 0
33 38 0
-33 -38 0
33 42 0
-33 -42 0
33 43 0
-33 -43 0
34 37 0
-34 -37 0
34 41 0
-34 -41 0
34 43 0
-34 -43 0
35 36 0
-35 -36 0
35 41 0
-35 -41 0
35 42 0
-35 -42 0
36 39 0
-36 -39 0
36 43 0
-36 -43 0
37 39 0
-37 -39 0
37 42 0
-37 -42 0
38 39 0
-38 -39 0
38 41 0
-38 -41 0
