FourierSAT_Github_AIJ/res/fs_1core/hamming8-4.clq.cnf.txt
o 195
o 191
o 188
o 185
o 176
